n=40;
t=50;
profit=[3 8 9 9 2 2 8 2 8 9 5 4 4 5 1 3 3 5 7 9 4 4 7 3 4 7 9 7 3 4 6 1 10 1 4 4 5 6 2 2];
length=[4 5 5 1 3 1 5 4 4 1 3 5 3 3 1 5 3 3 5 1 4 1 1 3 3 2 5 4 3 4 3 1 2 2 1 3 3 4 4 1];
min_deliver=[11 28 5 6 16 13 14 23 17 38 43 17 5 4 4 25 11 14 9 2 30 18 23 16 8 19 50 29 39 10 22 16 38 10 48 6 26 40 35 41];
max_deliver=[16 28 5 6 19 16 16 24 20 39 45 20 10 8 8 25 15 17 9 6 33 21 27 18 13 22 50 33 44 15 23 21 39 12 49 6 30 40 36 43];
surface=[1 2 3 4 5 2 1 3 4 1 4 4 2 2 4 4 2 1 1 3 2 3 3 5 4 4 4 4 4 2 4 2 5 2 1 3 1 3 3 1];
surface_capacity=22;
